max:100.00x0102 + 100.00x0103 - 10.00q01 - 20.00q02;

-5 <= x0102 <= 5;
-2 <= x0103 <= 2;
-5 <= x0203 <= 5;
-2 <= x0204 <= 2;
-5 <= x0304 <= 5;

x0102 = x0203 + x0204;
x0103 + x0203 = x0304;

1y0102 + 1z0102 + 2y0103 + 2z0103 + 1y0203 + 1z0203 + 2y0204 + 2z0204 + 3y0304 + 3z0304 <= 4q01 + 5q02;
1y0102 + 1z0102 + 2y0103 + 2z0103 + 2y0203 + 2z0203 + 1y0204 + 1z0204 + 4y0304 + 4z0304 <= 2q01 + 2q02;
5y0102 + 5z0102 + 0y0103 + 0z0103 + 0y0203 + 0z0203 + 0y0204 + 0z0204 + 6y0304 + 6z0304 <= 0q01 + 1q02;

y0102 - z0102 = x0102;
y0103 - z0103 = x0103;
y0203 - z0203 = x0203;
y0204 - z0204 = x0204;
y0304 - z0304 = x0304;

y0102 >= 0;
z0102 >= 0;
y0103 >= 0;
z0103 >= 0;
y0203 >= 0;
z0203 >= 0;
y0204 >= 0;
z0204 >= 0;
y0304 >= 0;
z0304 >= 0;
q01 >= 0;
q02 >= 0;
